BAYES
361
2 2 2 2 2 2 2 2 2 2 2 2 2 2 2 2 2 2 2 2 2 2 2 2 2 2 2 2 2 2 2 2 2 2 2 2 2 2 2 2 2 2 2 2 2 2 2 2 2 2 2 2 2 2 2 2 2 2 2 2 2 2 2 2 2 2 2 2 2 2 2 2 2 2 2 2 2 2 2 2 2 2 2 2 2 2 2 2 2 2 2 2 2 2 2 2 2 2 2 2 2 2 2 2 2 2 2 2 2 2 2 2 2 2 2 2 2 2 2 2 2 2 2 2 2 2 2 2 2 2 2 2 2 2 2 2 2 2 2 2 2 2 2 2 2 2 2 2 2 2 2 2 2 2 2 2 2 2 2 2 2 2 2 2 2 2 2 2 2 2 2 2 2 2 2 2 2 2 2 2 2 2 2 2 2 2 2 2 2 2 2 2 2 2 2 2 2 2 2 2 2 2 2 2 2 2 2 2 2 2 2 2 2 2 2 2 2 2 2 2 2 2 2 2 2 2 2 2 2 2 2 2 2 2 2 2 2 2 2 2 2 2 2 2 2 2 2 2 2 2 2 2 2 2 2 2 2 2 2 2 2 2 2 2 2 2 2 2 2 2 2 2 2 2 2 2 2 2 2 2 2 2 2 2 2 2 2 2 2 2 2 2 2 2 2 2 2 2 2 2 2 2 2 2 2 2 2 2 2 2 2 2 2 2 2 2 2 2 2 2 2 2 2 2 2 2 2 2 2 2 2 2 2 2 2 2 2 2 2 2 2 2 2 2 2 2 2 2 2 2 2 2 2 2 2 2 2 2 2 2 2
361
1 0
2 0 1
2 1 2
2 2 3
2 3 4
2 4 5
2 5 6
2 6 7
2 7 8
2 8 9
2 9 10
2 10 11
2 11 12
2 12 13
2 13 14
2 14 15
2 15 16
2 16 17
2 17 18
2 0 19
3 1 19 20
3 2 20 21
3 3 21 22
3 4 22 23
3 5 23 24
3 6 24 25
3 7 25 26
3 8 26 27
3 9 27 28
3 10 28 29
3 11 29 30
3 12 30 31
3 13 31 32
3 14 32 33
3 15 33 34
3 16 34 35
3 17 35 36
3 18 36 37
2 19 38
3 20 38 39
3 21 39 40
3 22 40 41
3 23 41 42
3 24 42 43
3 25 43 44
3 26 44 45
3 27 45 46
3 28 46 47
3 29 47 48
3 30 48 49
3 31 49 50
3 32 50 51
3 33 51 52
3 34 52 53
3 35 53 54
3 36 54 55
3 37 55 56
2 38 57
3 39 57 58
3 40 58 59
3 41 59 60
3 42 60 61
3 43 61 62
3 44 62 63
3 45 63 64
3 46 64 65
3 47 65 66
3 48 66 67
3 49 67 68
3 50 68 69
3 51 69 70
3 52 70 71
3 53 71 72
3 54 72 73
3 55 73 74
3 56 74 75
2 57 76
3 58 76 77
3 59 77 78
3 60 78 79
3 61 79 80
3 62 80 81
3 63 81 82
3 64 82 83
3 65 83 84
3 66 84 85
3 67 85 86
3 68 86 87
3 69 87 88
3 70 88 89
3 71 89 90
3 72 90 91
3 73 91 92
3 74 92 93
3 75 93 94
2 76 95
3 77 95 96
3 78 96 97
3 79 97 98
3 80 98 99
3 81 99 100
3 82 100 101
3 83 101 102
3 84 102 103
3 85 103 104
3 86 104 105
3 87 105 106
3 88 106 107
3 89 107 108
3 90 108 109
3 91 109 110
3 92 110 111
3 93 111 112
3 94 112 113
2 95 114
3 96 114 115
3 97 115 116
3 98 116 117
3 99 117 118
3 100 118 119
3 101 119 120
3 102 120 121
3 103 121 122
3 104 122 123
3 105 123 124
3 106 124 125
3 107 125 126
3 108 126 127
3 109 127 128
3 110 128 129
3 111 129 130
3 112 130 131
3 113 131 132
2 114 133
3 115 133 134
3 116 134 135
3 117 135 136
3 118 136 137
3 119 137 138
3 120 138 139
3 121 139 140
3 122 140 141
3 123 141 142
3 124 142 143
3 125 143 144
3 126 144 145
3 127 145 146
3 128 146 147
3 129 147 148
3 130 148 149
3 131 149 150
3 132 150 151
2 133 152
3 134 152 153
3 135 153 154
3 136 154 155
3 137 155 156
3 138 156 157
3 139 157 158
3 140 158 159
3 141 159 160
3 142 160 161
3 143 161 162
3 144 162 163
3 145 163 164
3 146 164 165
3 147 165 166
3 148 166 167
3 149 167 168
3 150 168 169
3 151 169 170
2 152 171
3 153 171 172
3 154 172 173
3 155 173 174
3 156 174 175
3 157 175 176
3 158 176 177
3 159 177 178
3 160 178 179
3 161 179 180
3 162 180 181
3 163 181 182
3 164 182 183
3 165 183 184
3 166 184 185
3 167 185 186
3 168 186 187
3 169 187 188
3 170 188 189
2 171 190
3 172 190 191
3 173 191 192
3 174 192 193
3 175 193 194
3 176 194 195
3 177 195 196
3 178 196 197
3 179 197 198
3 180 198 199
3 181 199 200
3 182 200 201
3 183 201 202
3 184 202 203
3 185 203 204
3 186 204 205
3 187 205 206
3 188 206 207
3 189 207 208
2 190 209
3 191 209 210
3 192 210 211
3 193 211 212
3 194 212 213
3 195 213 214
3 196 214 215
3 197 215 216
3 198 216 217
3 199 217 218
3 200 218 219
3 201 219 220
3 202 220 221
3 203 221 222
3 204 222 223
3 205 223 224
3 206 224 225
3 207 225 226
3 208 226 227
2 209 228
3 210 228 229
3 211 229 230
3 212 230 231
3 213 231 232
3 214 232 233
3 215 233 234
3 216 234 235
3 217 235 236
3 218 236 237
3 219 237 238
3 220 238 239
3 221 239 240
3 222 240 241
3 223 241 242
3 224 242 243
3 225 243 244
3 226 244 245
3 227 245 246
2 228 247
3 229 247 248
3 230 248 249
3 231 249 250
3 232 250 251
3 233 251 252
3 234 252 253
3 235 253 254
3 236 254 255
3 237 255 256
3 238 256 257
3 239 257 258
3 240 258 259
3 241 259 260
3 242 260 261
3 243 261 262
3 244 262 263
3 245 263 264
3 246 264 265
2 247 266
3 248 266 267
3 249 267 268
3 250 268 269
3 251 269 270
3 252 270 271
3 253 271 272
3 254 272 273
3 255 273 274
3 256 274 275
3 257 275 276
3 258 276 277
3 259 277 278
3 260 278 279
3 261 279 280
3 262 280 281
3 263 281 282
3 264 282 283
3 265 283 284
2 266 285
3 267 285 286
3 268 286 287
3 269 287 288
3 270 288 289
3 271 289 290
3 272 290 291
3 273 291 292
3 274 292 293
3 275 293 294
3 276 294 295
3 277 295 296
3 278 296 297
3 279 297 298
3 280 298 299
3 281 299 300
3 282 300 301
3 283 301 302
3 284 302 303
2 285 304
3 286 304 305
3 287 305 306
3 288 306 307
3 289 307 308
3 290 308 309
3 291 309 310
3 292 310 311
3 293 311 312
3 294 312 313
3 295 313 314
3 296 314 315
3 297 315 316
3 298 316 317
3 299 317 318
3 300 318 319
3 301 319 320
3 302 320 321
3 303 321 322
2 304 323
3 305 323 324
3 306 324 325
3 307 325 326
3 308 326 327
3 309 327 328
3 310 328 329
3 311 329 330
3 312 330 331
3 313 331 332
3 314 332 333
3 315 333 334
3 316 334 335
3 317 335 336
3 318 336 337
3 319 337 338
3 320 338 339
3 321 339 340
3 322 340 341
2 323 342
3 324 342 343
3 325 343 344
3 326 344 345
3 327 345 346
3 328 346 347
3 329 347 348
3 330 348 349
3 331 349 350
3 332 350 351
3 333 351 352
3 334 352 353
3 335 353 354
3 336 354 355
3 337 355 356
3 338 356 357
3 339 357 358
3 340 358 359
3 341 359 360

2
0.117026 0.882974
4
0.928162 0.0718384 0.247095 0.752905
4
0.261134 0.738866 0.158704 0.841296
4
0.0 1.0 1.0 0.0
4
0.0 1.0 1.0 0.0
4
1.0 0.0 0.0 1.0
4
0.612688 0.387312 0.359589 0.640411
4
0.734676 0.265324 0.305746 0.694254
4
0.884332 0.115668 0.0778187 0.922181
4
0.803599 0.196401 0.702527 0.297473
4
1.0 0.0 0.0 1.0
4
0.752498 0.247502 0.860324 0.139676
4
0.869525 0.130475 0.595227 0.404773
4
0.11662 0.88338 0.316088 0.683912
4
0.275324 0.724676 0.596654 0.403346
4
0.644213 0.355787 0.940421 0.0595786
4
0.0 1.0 1.0 0.0
4
0.0 1.0 1.0 0.0
4
0.0132161 0.986784 0.519014 0.480986
4
0.825555 0.174445 0.403346 0.596654
8
0.0 1.0 1.0 0.0 0.0 1.0 1.0 0.0
8
1.0 0.0 1.0 0.0 0.0 1.0 1.0 0.0
8
0.0 1.0 1.0 0.0 0.0 1.0 0.0 1.0
8
0.637443 0.362557 0.71759 0.28241 0.284558 0.715442 0.281657 0.718343
8
0.456208 0.543792 0.599858 0.400142 0.141108 0.858892 0.240546 0.759454
8
1.0 0.0 1.0 0.0 1.0 0.0 0.0 1.0
8
0.0 1.0 1.0 0.0 1.0 0.0 1.0 0.0
8
0.795777 0.204223 0.407585 0.592415 0.928766 0.0712337 0.0913494 0.908651
8
0.733614 0.266386 0.9013 0.0987 0.0152043 0.984796 0.85455 0.14545
8
1.0 0.0 0.0 1.0 1.0 0.0 1.0 0.0
8
1.0 0.0 1.0 0.0 1.0 0.0 0.0 1.0
8
0.525582 0.474418 0.227634 0.772366 0.0729966 0.927003 0.505461 0.494539
8
1.0 0.0 0.0 1.0 1.0 0.0 1.0 0.0
8
0.479535 0.520465 0.277737 0.722263 0.352792 0.647208 0.408301 0.591699
8
0.0 1.0 1.0 0.0 0.0 1.0 0.0 1.0
8
0.673729 0.326271 0.568604 0.431396 0.528471 0.471529 0.608033 0.391967
8
0.756 0.244 0.142195 0.857805 0.170013 0.829987 0.224075 0.775925
8
0.695595 0.304405 0.45171 0.54829 0.0270034 0.972997 0.201056 0.798944
4
0.42254 0.57746 0.114652 0.885348
8
0.904499 0.0955008 0.0598588 0.940141 0.0821736 0.917826 0.182236 0.817764
8
0.0 1.0 0.0 1.0 1.0 0.0 0.0 1.0
8
0.439608 0.560392 0.628856 0.371144 0.578858 0.421142 0.113337 0.886663
8
1.0 0.0 1.0 0.0 0.0 1.0 0.0 1.0
8
0.166227 0.833773 0.0874046 0.912595 0.817572 0.182428 0.861822 0.138178
8
0.844576 0.155424 0.0628788 0.937121 0.381364 0.618636 0.267116 0.732884
8
0.0 1.0 0.0 1.0 1.0 0.0 0.0 1.0
8
0.0 1.0 0.0 1.0 0.0 1.0 1.0 0.0
8
1.0 0.0 0.0 1.0 1.0 0.0 0.0 1.0
8
0.015357 0.984643 0.413067 0.586933 0.342883 0.657117 0.0115715 0.988429
8
0.0 1.0 1.0 0.0 0.0 1.0 1.0 0.0
8
0.0 1.0 0.0 1.0 1.0 0.0 0.0 1.0
8
1.0 0.0 1.0 0.0 0.0 1.0 0.0 1.0
8
0.0 1.0 0.0 1.0 0.0 1.0 1.0 0.0
8
1.0 0.0 0.0 1.0 1.0 0.0 0.0 1.0
8
0.365718 0.634282 0.913403 0.0865975 0.0120361 0.987964 0.708601 0.291399
8
0.288432 0.711568 0.915049 0.0849512 0.102773 0.897227 0.652233 0.347767
8
0.142394 0.857606 0.555148 0.444852 0.807665 0.192335 0.244894 0.755106
4
0.943377 0.0566229 0.524925 0.475075
8
0.0 1.0 0.0 1.0 1.0 0.0 1.0 0.0
8
1.0 0.0 0.0 1.0 0.0 1.0 0.0 1.0
8
0.19004 0.80996 0.311465 0.688535 0.370432 0.629568 0.555758 0.444242
8
1.0 0.0 1.0 0.0 0.0 1.0 0.0 1.0
8
1.0 0.0 0.0 1.0 1.0 0.0 0.0 1.0
8
0.926141 0.0738586 0.639902 0.360098 0.717708 0.282292 0.869519 0.130481
8
0.0 1.0 1.0 0.0 0.0 1.0 1.0 0.0
8
1.0 0.0 0.0 1.0 0.0 1.0 1.0 0.0
8
1.0 0.0 0.0 1.0 0.0 1.0 0.0 1.0
8
0.550601 0.449399 0.0346984 0.965302 0.87297 0.12703 0.700443 0.299557
8
0.0523769 0.947623 0.953057 0.0469433 0.0287319 0.971268 0.170853 0.829147
8
1.0 0.0 0.0 1.0 1.0 0.0 0.0 1.0
8
0.152793 0.847207 0.450136 0.549864 0.0867354 0.913265 0.359965 0.640035
8
0.118839 0.881161 0.776944 0.223056 0.318565 0.681435 0.629175 0.370825
8
0.332834 0.667166 0.910974 0.0890265 0.692611 0.307389 0.658569 0.341431
8
0.301223 0.698777 0.20917 0.79083 0.597902 0.402098 0.174193 0.825807
8
0.303501 0.696499 0.22657 0.77343 0.862669 0.137331 0.332233 0.667767
8
1.0 0.0 0.0 1.0 0.0 1.0 0.0 1.0
4
0.46093 0.53907 0.351494 0.648506
8
1.0 0.0 0.0 1.0 1.0 0.0 0.0 1.0
8
0.0 1.0 0.0 1.0 1.0 0.0 1.0 0.0
8
1.0 0.0 0.0 1.0 1.0 0.0 0.0 1.0
8
0.36776 0.63224 0.296187 0.703813 0.46057 0.53943 0.671261 0.328739
8
0.323239 0.676761 0.00349386 0.996506 0.920179 0.0798206 0.533973 0.466027
8
0.0 1.0 1.0 0.0 0.0 1.0 1.0 0.0
8
0.0 1.0 1.0 0.0 1.0 0.0 1.0 0.0
8
0.0 1.0 1.0 0.0 1.0 0.0 1.0 0.0
8
0.0 1.0 0.0 1.0 0.0 1.0 1.0 0.0
8
1.0 0.0 1.0 0.0 0.0 1.0 1.0 0.0
8
0.0 1.0 0.0 1.0 1.0 0.0 1.0 0.0
8
0.647144 0.352856 0.508675 0.491325 0.429432 0.570568 0.753851 0.246149
8
0.0 1.0 1.0 0.0 0.0 1.0 1.0 0.0
8
0.897092 0.102908 0.593255 0.406745 0.430304 0.569696 0.28247 0.71753
8
0.0 1.0 1.0 0.0 1.0 0.0 1.0 0.0
8
0.123531 0.876469 0.966041 0.0339594 0.244502 0.755498 0.963077 0.0369231
8
0.0 1.0 1.0 0.0 1.0 0.0 1.0 0.0
8
0.418499 0.581501 0.0211534 0.978847 0.252053 0.747947 0.17235 0.82765
4
0.0 1.0 1.0 0.0
8
1.0 0.0 1.0 0.0 0.0 1.0 1.0 0.0
8
0.404606 0.595394 0.392313 0.607687 0.673579 0.326421 0.321142 0.678858
8
0.0 1.0 1.0 0.0 1.0 0.0 0.0 1.0
8
0.0 1.0 1.0 0.0 1.0 0.0 1.0 0.0
8
1.0 0.0 0.0 1.0 0.0 1.0 1.0 0.0
8
1.0 0.0 0.0 1.0 0.0 1.0 0.0 1.0
8
1.0 0.0 0.0 1.0 0.0 1.0 1.0 0.0
8
1.0 0.0 1.0 0.0 1.0 0.0 0.0 1.0
8
0.0 1.0 1.0 0.0 1.0 0.0 1.0 0.0
8
0.500386 0.499614 0.0614055 0.938595 0.702257 0.297743 0.652691 0.347309
8
0.870503 0.129497 0.930857 0.0691429 0.505156 0.494844 0.551228 0.448772
8
0.0 1.0 1.0 0.0 1.0 0.0 0.0 1.0
8
1.0 0.0 1.0 0.0 0.0 1.0 1.0 0.0
8
0.110148 0.889852 0.557852 0.442148 0.719058 0.280942 0.932286 0.0677141
8
1.0 0.0 0.0 1.0 0.0 1.0 0.0 1.0
8
0.492414 0.507586 0.776066 0.223934 0.674803 0.325197 0.194671 0.805329
8
1.0 0.0 1.0 0.0 1.0 0.0 0.0 1.0
8
0.391258 0.608742 0.608769 0.391231 0.869508 0.130492 0.775741 0.224259
4
1.0 0.0 0.0 1.0
8
0.0 1.0 1.0 0.0 0.0 1.0 1.0 0.0
8
0.0 1.0 1.0 0.0 0.0 1.0 1.0 0.0
8
0.0 1.0 1.0 0.0 1.0 0.0 1.0 0.0
8
0.143464 0.856536 0.262042 0.737958 0.852938 0.147062 0.57222 0.42778
8
0.918112 0.081888 0.931834 0.0681659 0.91201 0.0879905 0.534514 0.465486
8
0.0 1.0 1.0 0.0 1.0 0.0 1.0 0.0
8
1.0 0.0 0.0 1.0 1.0 0.0 0.0 1.0
8
0.885528 0.114472 0.00789429 0.992106 0.516958 0.483042 0.511379 0.488621
8
1.0 0.0 0.0 1.0 1.0 0.0 1.0 0.0
8
0.340081 0.659919 0.188438 0.811562 0.182694 0.817306 0.174528 0.825472
8
0.0 1.0 1.0 0.0 0.0 1.0 0.0 1.0
8
0.0450848 0.954915 0.536453 0.463547 0.466474 0.533526 0.678953 0.321047
8
0.939033 0.0609674 0.22299 0.77701 0.266616 0.733384 0.81973 0.18027
8
0.152144 0.847856 0.827624 0.172376 0.304303 0.695697 0.663523 0.336477
8
0.795103 0.204897 0.340755 0.659245 0.394246 0.605754 0.873141 0.126859
8
0.00471994 0.99528 0.213222 0.786778 0.864693 0.135307 0.187414 0.812586
8
0.0 1.0 1.0 0.0 0.0 1.0 1.0 0.0
8
0.0816048 0.918395 0.657391 0.342609 0.276015 0.723985 0.548079 0.451921
4
1.0 0.0 0.0 1.0
8
0.0 1.0 1.0 0.0 0.0 1.0 1.0 0.0
8
0.134465 0.865535 0.650982 0.349018 0.2723 0.7277 0.0617016 0.938298
8
1.0 0.0 0.0 1.0 1.0 0.0 1.0 0.0
8
0.0 1.0 0.0 1.0 1.0 0.0 1.0 0.0
8
0.0 1.0 1.0 0.0 0.0 1.0 0.0 1.0
8
0.0 1.0 0.0 1.0 1.0 0.0 1.0 0.0
8
1.0 0.0 1.0 0.0 0.0 1.0 1.0 0.0
8
0.221028 0.778972 0.952587 0.0474126 0.288284 0.711716 0.493328 0.506672
8
0.0 1.0 1.0 0.0 0.0 1.0 0.0 1.0
8
0.0 1.0 0.0 1.0 0.0 1.0 1.0 0.0
8
0.674942 0.325058 0.52901 0.47099 0.900726 0.0992742 0.412494 0.587506
8
1.0 0.0 0.0 1.0 0.0 1.0 0.0 1.0
8
0.339814 0.660186 0.912267 0.0877329 0.829348 0.170652 0.952066 0.0479345
8
0.46665 0.53335 0.173094 0.826906 0.682977 0.317023 0.754933 0.245067
8
0.697266 0.302734 0.489302 0.510698 0.772805 0.227195 0.167502 0.832498
8
0.168498 0.831502 0.098407 0.901593 0.128938 0.871062 0.718194 0.281806
8
0.635178 0.364822 0.393135 0.606865 0.206403 0.793597 0.535904 0.464096
8
0.424999 0.575001 0.91272 0.0872799 0.613067 0.386933 0.609196 0.390804
4
1.0 0.0 0.0 1.0
8
0.225973 0.774027 0.981141 0.0188591 0.901076 0.098924 0.956363 0.0436374
8
1.0 0.0 1.0 0.0 0.0 1.0 1.0 0.0
8
1.0 0.0 1.0 0.0 0.0 1.0 1.0 0.0
8
0.602514 0.397486 0.36386 0.63614 0.400087 0.599913 0.279908 0.720092
8
0.793223 0.206777 0.486311 0.513689 0.534941 0.465059 0.598852 0.401148
8
0.447661 0.552339 0.211919 0.788081 0.520507 0.479493 0.761367 0.238633
8
1.0 0.0 0.0 1.0 0.0 1.0 0.0 1.0
8
0.444763 0.555237 0.583042 0.416958 0.995367 0.00463324 0.185354 0.814646
8
0.687393 0.312607 0.69875 0.30125 0.423754 0.576246 0.922314 0.0776856
8
1.0 0.0 0.0 1.0 1.0 0.0 1.0 0.0
8
0.0 1.0 0.0 1.0 1.0 0.0 0.0 1.0
8
0.267813 0.732187 0.384724 0.615276 0.224304 0.775696 0.0291806 0.970819
8
0.693821 0.306179 0.0165211 0.983479 0.0932878 0.906712 0.0644145 0.935586
8
0.885931 0.114069 0.509177 0.490823 0.543266 0.456734 0.881297 0.118703
8
0.462914 0.537086 0.56869 0.43131 0.393281 0.606719 0.886668 0.113332
8
0.0 1.0 1.0 0.0 1.0 0.0 1.0 0.0
8
0.0 1.0 1.0 0.0 1.0 0.0 0.0 1.0
8
1.0 0.0 1.0 0.0 1.0 0.0 0.0 1.0
4
1.0 0.0 0.0 1.0
8
0.0 1.0 1.0 0.0 1.0 0.0 1.0 0.0
8
0.295092 0.704908 0.901647 0.0983531 0.162461 0.837539 0.863782 0.136218
8
0.0 1.0 1.0 0.0 0.0 1.0 1.0 0.0
8
1.0 0.0 0.0 1.0 1.0 0.0 1.0 0.0
8
1.0 0.0 0.0 1.0 0.0 1.0 0.0 1.0
8
0.84788 0.15212 0.406789 0.593211 0.174255 0.825745 0.481404 0.518596
8
0.702119 0.297881 0.179343 0.820657 0.759128 0.240872 0.115914 0.884086
8
1.0 0.0 0.0 1.0 0.0 1.0 0.0 1.0
8
0.0 1.0 1.0 0.0 0.0 1.0 1.0 0.0
8
0.761539 0.238461 0.275398 0.724602 0.813511 0.186489 0.955894 0.0441063
8
1.0 0.0 0.0 1.0 0.0 1.0 1.0 0.0
8
1.0 0.0 0.0 1.0 1.0 0.0 0.0 1.0
8
1.0 0.0 1.0 0.0 1.0 0.0 0.0 1.0
8
0.809554 0.190446 0.48748 0.51252 0.22403 0.77597 0.0976595 0.902341
8
1.0 0.0 1.0 0.0 0.0 1.0 1.0 0.0
8
1.0 0.0 1.0 0.0 0.0 1.0 1.0 0.0
8
0.231017 0.768983 0.878616 0.121384 0.716553 0.283447 0.145485 0.854515
8
0.0 1.0 0.0 1.0 1.0 0.0 0.0 1.0
4
1.0 0.0 0.0 1.0
8
0.0 1.0 1.0 0.0 0.0 1.0 1.0 0.0
8
0.266439 0.733561 0.481894 0.518106 0.70007 0.29993 0.765257 0.234743
8
1.0 0.0 0.0 1.0 0.0 1.0 1.0 0.0
8
0.103146 0.896854 0.114895 0.885105 0.629408 0.370592 0.738642 0.261358
8
0.0 1.0 0.0 1.0 1.0 0.0 0.0 1.0
8
0.39923 0.60077 0.452173 0.547827 0.524761 0.475239 0.550815 0.449185
8
0.754147 0.245853 0.125496 0.874504 0.631313 0.368687 0.796557 0.203443
8
0.222765 0.777235 0.0629961 0.937004 0.991624 0.00837635 0.922835 0.0771651
8
0.154211 0.845789 0.401788 0.598212 0.721904 0.278096 0.649378 0.350622
8
0.0 1.0 1.0 0.0 1.0 0.0 1.0 0.0
8
1.0 0.0 1.0 0.0 1.0 0.0 0.0 1.0
8
1.0 0.0 0.0 1.0 0.0 1.0 1.0 0.0
8
1.0 0.0 0.0 1.0 0.0 1.0 1.0 0.0
8
1.0 0.0 1.0 0.0 0.0 1.0 0.0 1.0
8
1.0 0.0 0.0 1.0 1.0 0.0 1.0 0.0
8
0.739772 0.260228 0.132949 0.867051 0.377169 0.622831 0.146623 0.853377
8
1.0 0.0 0.0 1.0 0.0 1.0 0.0 1.0
8
0.0 1.0 1.0 0.0 0.0 1.0 0.0 1.0
4
0.0 1.0 1.0 0.0
8
1.0 0.0 0.0 1.0 0.0 1.0 1.0 0.0
8
0.0 1.0 1.0 0.0 1.0 0.0 1.0 0.0
8
0.0 1.0 0.0 1.0 0.0 1.0 1.0 0.0
8
1.0 0.0 1.0 0.0 1.0 0.0 0.0 1.0
8
0.514494 0.485506 0.37109 0.62891 0.611455 0.388545 0.658043 0.341957
8
0.364998 0.635002 0.444984 0.555016 0.513587 0.486413 0.582146 0.417854
8
1.0 0.0 0.0 1.0 1.0 0.0 1.0 0.0
8
1.0 0.0 1.0 0.0 0.0 1.0 0.0 1.0
8
1.0 0.0 0.0 1.0 1.0 0.0 1.0 0.0
8
0.0 1.0 0.0 1.0 1.0 0.0 1.0 0.0
8
0.0 1.0 1.0 0.0 0.0 1.0 1.0 0.0
8
0.0 1.0 0.0 1.0 1.0 0.0 0.0 1.0
8
0.208228 0.791772 0.318169 0.681831 0.587295 0.412705 0.935211 0.0647894
8
0.0 1.0 1.0 0.0 0.0 1.0 0.0 1.0
8
0.578339 0.421661 0.471175 0.528825 0.336299 0.663701 0.659327 0.340673
8
0.622767 0.377233 0.208798 0.791202 0.632438 0.367562 0.837658 0.162342
8
1.0 0.0 0.0 1.0 1.0 0.0 0.0 1.0
8
0.0 1.0 1.0 0.0 0.0 1.0 0.0 1.0
4
0.0 1.0 1.0 0.0
8
1.0 0.0 0.0 1.0 1.0 0.0 1.0 0.0
8
0.0 1.0 1.0 0.0 1.0 0.0 1.0 0.0
8
1.0 0.0 0.0 1.0 1.0 0.0 0.0 1.0
8
0.0 1.0 1.0 0.0 0.0 1.0 0.0 1.0
8
1.0 0.0 0.0 1.0 1.0 0.0 0.0 1.0
8
0.0 1.0 0.0 1.0 1.0 0.0 0.0 1.0
8
0.0 1.0 1.0 0.0 1.0 0.0 1.0 0.0
8
0.885966 0.114034 0.476376 0.523624 0.325965 0.674035 0.594619 0.405381
8
0.515074 0.484926 0.639572 0.360428 0.592241 0.407759 0.659745 0.340255
8
1.0 0.0 1.0 0.0 0.0 1.0 1.0 0.0
8
0.167355 0.832645 0.680614 0.319386 0.8083 0.1917 0.994451 0.0055492
8
0.990675 0.00932479 0.282059 0.717941 0.675807 0.324193 0.124068 0.875932
8
0.139111 0.860889 0.526647 0.473353 0.536852 0.463148 0.917508 0.0824924
8
1.0 0.0 0.0 1.0 0.0 1.0 1.0 0.0
8
1.0 0.0 0.0 1.0 0.0 1.0 0.0 1.0
8
0.344958 0.655042 0.814991 0.185009 0.0825225 0.917477 0.157628 0.842372
8
0.0661309 0.933869 0.324983 0.675017 0.654008 0.345992 0.87443 0.12557
8
1.0 0.0 1.0 0.0 1.0 0.0 0.0 1.0
4
0.201921 0.798079 0.0613093 0.938691
8
0.738773 0.261227 0.978817 0.0211831 0.868916 0.131084 0.883656 0.116344
8
0.698386 0.301614 0.354504 0.645496 0.180383 0.819617 0.232502 0.767498
8
0.0 1.0 1.0 0.0 0.0 1.0 1.0 0.0
8
0.0 1.0 1.0 0.0 1.0 0.0 1.0 0.0
8
0.0 1.0 1.0 0.0 0.0 1.0 0.0 1.0
8
0.966544 0.0334556 0.969842 0.0301584 0.863457 0.136543 0.168465 0.831535
8
0.0 1.0 1.0 0.0 0.0 1.0 0.0 1.0
8
0.792258 0.207742 0.94658 0.0534198 0.145398 0.854602 0.972641 0.0273585
8
0.0 1.0 1.0 0.0 1.0 0.0 1.0 0.0
8
0.540534 0.459466 0.47433 0.52567 0.859033 0.140967 0.675281 0.324719
8
0.660285 0.339715 0.684458 0.315542 0.884999 0.115001 0.707928 0.292072
8
0.851543 0.148457 0.677769 0.322231 0.422199 0.577801 0.0200083 0.979992
8
0.801477 0.198523 0.927246 0.0727539 0.718888 0.281112 0.0496715 0.950329
8
0.511146 0.488854 0.996252 0.00374833 0.863538 0.136462 0.483788 0.516212
8
1.0 0.0 0.0 1.0 1.0 0.0 0.0 1.0
8
1.0 0.0 0.0 1.0 0.0 1.0 0.0 1.0
8
0.0 1.0 0.0 1.0 0.0 1.0 1.0 0.0
8
0.280295 0.719705 0.158993 0.841007 0.330078 0.669922 0.702494 0.297506
4
1.0 0.0 0.0 1.0
8
0.106247 0.893753 0.757887 0.242113 0.553643 0.446357 0.824387 0.175613
8
1.0 0.0 1.0 0.0 0.0 1.0 1.0 0.0
8
1.0 0.0 0.0 1.0 1.0 0.0 0.0 1.0
8
0.220383 0.779617 0.757975 0.242025 0.147661 0.852339 0.257478 0.742522
8
0.0 1.0 1.0 0.0 0.0 1.0 0.0 1.0
8
0.0 1.0 1.0 0.0 0.0 1.0 0.0 1.0
8
1.0 0.0 1.0 0.0 1.0 0.0 0.0 1.0
8
0.0 1.0 0.0 1.0 0.0 1.0 1.0 0.0
8
1.0 0.0 1.0 0.0 0.0 1.0 1.0 0.0
8
0.560667 0.439333 0.933913 0.0660871 0.744287 0.255713 0.818146 0.181854
8
0.0 1.0 0.0 1.0 0.0 1.0 1.0 0.0
8
1.0 0.0 0.0 1.0 0.0 1.0 0.0 1.0
8
1.0 0.0 1.0 0.0 0.0 1.0 0.0 1.0
8
0.0728866 0.927113 0.208003 0.791997 0.673366 0.326634 0.367445 0.632555
8
0.993832 0.00616823 0.100506 0.899494 0.030004 0.969996 0.169769 0.830231
8
0.590671 0.409329 0.103682 0.896318 0.441418 0.558582 0.408817 0.591183
8
0.0 1.0 1.0 0.0 1.0 0.0 1.0 0.0
8
0.0 1.0 0.0 1.0 1.0 0.0 0.0 1.0
4
0.0 1.0 1.0 0.0
8
1.0 0.0 0.0 1.0 0.0 1.0 0.0 1.0
8
1.0 0.0 0.0 1.0 0.0 1.0 1.0 0.0
8
0.0 1.0 1.0 0.0 1.0 0.0 0.0 1.0
8
0.0 1.0 1.0 0.0 0.0 1.0 1.0 0.0
8
1.0 0.0 0.0 1.0 0.0 1.0 0.0 1.0
8
0.597602 0.402398 0.591455 0.408545 0.894629 0.105371 0.879676 0.120324
8
1.0 0.0 1.0 0.0 0.0 1.0 1.0 0.0
8
0.966291 0.0337087 0.0838173 0.916183 0.879217 0.120783 0.675125 0.324875
8
0.248539 0.751461 0.484465 0.515535 0.739106 0.260894 0.787631 0.212369
8
0.172424 0.827576 0.430404 0.569596 0.938826 0.0611735 0.0145585 0.985442
8
0.0 1.0 0.0 1.0 1.0 0.0 1.0 0.0
8
0.0 1.0 0.0 1.0 0.0 1.0 1.0 0.0
8
0.321172 0.678828 0.663188 0.336812 0.52741 0.47259 0.946074 0.0539257
8
0.0311362 0.968864 0.912366 0.0876344 0.7079 0.2921 0.910353 0.0896468
8
0.604359 0.395641 0.158892 0.841108 0.0719561 0.928044 0.343465 0.656535
8
0.0628929 0.937107 0.515889 0.484111 0.376927 0.623073 0.00171934 0.998281
8
0.668127 0.331873 0.166183 0.833817 0.593135 0.406865 0.640358 0.359642
8
0.0 1.0 0.0 1.0 0.0 1.0 1.0 0.0
4
0.252394 0.747606 0.643346 0.356654
8
0.198468 0.801532 0.267428 0.732572 0.545196 0.454804 0.110834 0.889166
8
0.455549 0.544451 0.698325 0.301675 0.579687 0.420313 0.614442 0.385558
8
0.923153 0.0768471 0.560964 0.439036 0.833174 0.166826 0.439042 0.560958
8
0.834893 0.165107 0.96949 0.0305101 0.606018 0.393982 0.00107626 0.998924
8
0.246377 0.753623 0.415788 0.584212 0.529077 0.470923 0.60932 0.39068
8
0.460299 0.539701 0.589477 0.410523 0.663281 0.336719 0.712693 0.287307
8
1.0 0.0 1.0 0.0 0.0 1.0 1.0 0.0
8
1.0 0.0 1.0 0.0 1.0 0.0 0.0 1.0
8
0.490601 0.509399 0.978419 0.0215807 0.353492 0.646508 0.323775 0.676225
8
1.0 0.0 1.0 0.0 1.0 0.0 0.0 1.0
8
1.0 0.0 0.0 1.0 0.0 1.0 0.0 1.0
8
0.0 1.0 1.0 0.0 1.0 0.0 0.0 1.0
8
0.0927857 0.907214 0.562807 0.437193 0.0756501 0.92435 0.815323 0.184677
8
0.551229 0.448771 0.993409 0.00659097 0.305122 0.694878 0.606495 0.393505
8
0.795723 0.204277 0.584915 0.415085 0.139429 0.860571 0.119498 0.880502
8
0.0 1.0 0.0 1.0 1.0 0.0 0.0 1.0
8
0.0 1.0 0.0 1.0 1.0 0.0 0.0 1.0
8
0.0 1.0 0.0 1.0 1.0 0.0 0.0 1.0
4
0.0 1.0 1.0 0.0
8
0.218718 0.781282 0.0891594 0.910841 0.555764 0.444236 0.769947 0.230053
8
1.0 0.0 1.0 0.0 1.0 0.0 0.0 1.0
8
0.00793426 0.992066 0.776108 0.223892 0.963733 0.0362666 0.438747 0.561253
8
0.0 1.0 0.0 1.0 1.0 0.0 0.0 1.0
8
0.0 1.0 0.0 1.0 1.0 0.0 1.0 0.0
8
1.0 0.0 1.0 0.0 0.0 1.0 1.0 0.0
8
1.0 0.0 0.0 1.0 0.0 1.0 0.0 1.0
8
0.0 1.0 0.0 1.0 0.0 1.0 1.0 0.0
8
0.50125 0.49875 0.274288 0.725712 0.494516 0.505484 0.464984 0.535016
8
0.54879 0.45121 0.818044 0.181956 0.479998 0.520002 0.0409741 0.959026
8
0.718954 0.281046 0.546601 0.453399 0.0195321 0.980468 0.183002 0.816998
8
1.0 0.0 0.0 1.0 1.0 0.0 1.0 0.0
8
0.0 1.0 1.0 0.0 0.0 1.0 0.0 1.0
8
0.946458 0.0535418 0.209368 0.790632 0.867613 0.132387 0.486351 0.513649
8
1.0 0.0 1.0 0.0 0.0 1.0 1.0 0.0
8
0.0 1.0 1.0 0.0 0.0 1.0 0.0 1.0
8
0.661997 0.338003 0.216904 0.783096 0.800171 0.199829 0.845 0.155
8
0.0857352 0.914265 0.059719 0.940281 0.804857 0.195143 0.0454868 0.954513
4
1.0 0.0 0.0 1.0
8
0.232232 0.767768 0.112616 0.887384 0.456202 0.543798 0.17869 0.82131
8
0.0 1.0 1.0 0.0 0.0 1.0 0.0 1.0
8
0.547717 0.452283 0.990375 0.0096245 0.105227 0.894773 0.0107637 0.989236
8
0.375856 0.624144 0.953808 0.0461925 0.290007 0.709993 0.156495 0.843505
8
0.50691 0.49309 0.956666 0.043334 0.460805 0.539195 0.0416485 0.958351
8
1.0 0.0 0.0 1.0 1.0 0.0 1.0 0.0
8
0.201979 0.798021 0.260217 0.739783 0.194477 0.805523 0.380669 0.619331
8
0.518292 0.481708 0.0457094 0.954291 0.379908 0.620092 0.428129 0.571871
8
0.927625 0.0723749 0.418504 0.581496 0.803579 0.196421 0.938389 0.0616112
8
0.0 1.0 1.0 0.0 1.0 0.0 1.0 0.0
8
0.835125 0.164875 0.292596 0.707404 0.968806 0.0311942 0.876774 0.123226
8
1.0 0.0 0.0 1.0 1.0 0.0 1.0 0.0
8
0.16116 0.83884 0.661055 0.338945 0.131097 0.868903 0.355637 0.644363
8
1.0 0.0 1.0 0.0 0.0 1.0 1.0 0.0
8
0.0 1.0 0.0 1.0 1.0 0.0 0.0 1.0
8
0.758771 0.241229 0.768798 0.231202 0.851416 0.148584 0.086986 0.913014
8
1.0 0.0 1.0 0.0 0.0 1.0 0.0 1.0
8
0.732321 0.267679 0.817552 0.182448 0.522165 0.477835 0.155206 0.844794